c instance by G2
c solution = 111100111
c Known solution cost is 471 
p cnf 9 30
w 8 56 59 6 97 34 69 93 49
9 -8 6 0
-2 8 -7 0
3 6 -5 0
2 -6 -9 0
-7 3 1 0
-1 8 -9 0
5 2 3 0
6 -4 7 0
1 -2 -9 0
-1 6 2 0
-5 4 2 0
4 3 6 0
-8 -6 4 0
-8 4 -9 0
2 4 -3 0
5 9 -8 0
5 3 2 0
1 5 -8 0
6 3 -7 0
-4 -5 7 0
8 -1 5 0
5 4 -1 0
-5 -4 -9 0
-6 5 -4 0
1 -7 6 0
3 -7 1 0
9 1 3 0
4 -8 -1 0
-7 -5 -8 0
7 -9 4 0
